webassembly/ejemplos_dzn/folder12_json_65.dzn
TERM = { '.', 's(2)', 's(4)', 'in_10', 'in_1', 'local_0', 'local_1', 'in_6', 'in_2', 'in_4', 'in_3', 'in_9', 'in_8', 's(1)', 's(0)', 'in_7', 'in_5', 's(3)', 'in_0'};
null = '.';
s = 12;
n = 16;
ndeps = 8;
max_registers_sz = 4;
NR = 1;
registers = [|'local_1', 's(4)'|];
dependencies = [|'i32.store_2', 'i32.store8_3', |'i32.store8_3', 'i32.load16_s_4', |'i32.store8_3', 'i32.load16_s_5', |'i32.store8_3', 'i32.load_7', |'i32.load16_s_4', 'i32.store_8', |'i32.load16_s_5', 'i32.store_8', |'i32.load_7', 'i32.store_8', |'i32.store_8', 'i32.store8_9'|];
GET_ENUM = { GET1, GET2, GET3, GET4, GET5};
SET_ENUM = { SET1, SET2, SET3, SET4, SET5};
TEE_ENUM = { TEE1, TEE2, TEE3, TEE4, TEE5};
N = 10;
OP = { 'i32.add_0', 'i32.add_1', 'i32.store_2', 'i32.store8_3', 'i32.load16_s_4', 'i32.load16_s_5', 'i32.load_7', 'i32.store_8', 'i32.store8_9', 'local.get_0' };
in_ops = [2, 2, 2, 2, 1, 1, 1, 2, 2, 0 ];
out_ops = [1, 1, 0, 0, 1, 1, 1, 0, 0, 1 ];
in1 = ['in_9', 'in_0', 'local_0', 'in_2', 'in_4', 's(1)', 'in_5', 's(3)', 'in_7', '.' ];
in2 = ['in_10', 'in_1', 's(0)', 'in_3', '.', '.', '.', 'in_6', 'in_8', '.' ];
in3 = ['.', '.', '.', '.', '.', '.', '.', '.', '.', '.' ];
out1 = ['s(4)', 's(0)', '.', '.', 's(1)', 's(2)', 's(3)', '.', '.', 'local_0' ];
out2 = ['.', '.', '.', '.', '.', '.', '.', '.', '.', '.' ];
out3 = ['.', '.', '.', '.', '.', '.', '.', '.', '.', '.' ];
comm = [true, true, false, false, false, false, false, false, false, false ];
gas = [1, 1, 1, 1, 1, 1, 1, 1, 1, 1 ];
sz = [1, 1, 1, 1, 1, 1, 1, 1, 1, 1 ];
stor = [false, false, true, true, false, false, false, true, true, false ];
lb = [ 1, 1, 1, 1, 1, 1, 1, 1, 1, 1 ];
ub = [ 12, 12, 12, 12, 12, 12, 12, 12, 12, 12 ];
startstack = [ 'in_0', 'in_1', 'in_2', 'in_3', 'in_4', 'in_5', 'in_6', 'in_7', 'in_8', 'in_9', 'in_10', null, null, null, null, null ];
endstack = [ 's(4)', null, null, null, null, null, null, null, null, null, null, null, null, null, null, null ];
